RLW08
Position Depot: Center
Horizon for Depot: Large
Position of customers: Random
Distribution of the demand: Medium
Width of time windows: Wide
Distribution of the service: Small

VEHICLE 
NUMBER 	 CAPACITY 
 5 	 	 195 
 
CUSTOMER
CUST NO. 	 XCOORD.  	 YCOORD. 	 DEMAND 	 READY TIME 	 DUE DATE 	 SERVICE TIME 
 0 	 	 500 	 	 500 	 	 0 	 	 0 	 	 4754 	 	 0 
  1 	 	 290 	 	 587 	 	 2 	 	 469 	 	 756 	 	 67 
  2 	 	 423 	 	 85 	 	 9 	 	 1992 	 	 2312 	 	 63 
  3 	 	 101 	 	 283 	 	 1 	 	 4018 	 	 4372 	 	 100 
  4 	 	 894 	 	 830 	 	 84 	 	 374 	 	 855 	 	 70 
  5 	 	 347 	 	 948 	 	 9 	 	 982 	 	 1200 	 	 78 
  6 	 	 833 	 	 372 	 	 1 	 	 54 	 	 415 	 	 76 
  7 	 	 767 	 	 167 	 	 52 	 	 4098 	 	 4515 	 	 61 
  8 	 	 996 	 	 924 	 	 2 	 	 815 	 	 1315 	 	 82 
  9 	 	 125 	 	 738 	 	 4 	 	 260 	 	 644 	 	 79 
  10 	 	 342 	 	 949 	 	 96 	 	 2749 	 	 3061 	 	 90 
  11 	 	 9 	 	 14 	 	 52 	 	 1181 	 	 1510 	 	 85 
  12 	 	 40 	 	 9 	 	 2 	 	 4151 	 	 4439 	 	 52 
  13 	 	 968 	 	 540 	 	 8 	 	 2203 	 	 2527 	 	 81 
  14 	 	 518 	 	 380 	 	 2 	 	 1453 	 	 1745 	 	 62 
  15 	 	 700 	 	 638 	 	 10 	 	 3270 	 	 3712 	 	 73 
  16 	 	 23 	 	 499 	 	 2 	 	 4333 	 	 4754 	 	 95 
  17 	 	 596 	 	 351 	 	 7 	 	 1367 	 	 1830 	 	 81 
  18 	 	 974 	 	 862 	 	 86 	 	 4280 	 	 4736 	 	 80 
  19 	 	 614 	 	 696 	 	 8 	 	 3717 	 	 4001 	 	 67 
  20 	 	 691 	 	 839 	 	 10 	 	 3009 	 	 3485 	 	 66 
  21 	 	 261 	 	 317 	 	 1 	 	 3531 	 	 3965 	 	 72 
  22 	 	 237 	 	 520 	 	 8 	 	 2612 	 	 2886 	 	 74 
  23 	 	 883 	 	 447 	 	 2 	 	 2816 	 	 3020 	 	 66 
  24 	 	 769 	 	 554 	 	 5 	 	 2998 	 	 3205 	 	 70 
  25 	 	 346 	 	 316 	 	 1 	 	 1587 	 	 1828 	 	 71 
  26 	 	 122 	 	 687 	 	 91 	 	 409 	 	 674 	 	 99 
  27 	 	 707 	 	 301 	 	 88 	 	 2631 	 	 2950 	 	 51 
  28 	 	 985 	 	 659 	 	 3 	 	 3883 	 	 4376 	 	 91 
  29 	 	 374 	 	 309 	 	 7 	 	 4094 	 	 4530 	 	 54 
  30 	 	 962 	 	 203 	 	 4 	 	 281 	 	 604 	 	 90 
  31 	 	 229 	 	 249 	 	 7 	 	 1582 	 	 1859 	 	 96 
  32 	 	 306 	 	 761 	 	 6 	 	 0 	 	 357 	 	 78 
  33 	 	 509 	 	 174 	 	 1 	 	 2825 	 	 3248 	 	 85 
  34 	 	 350 	 	 895 	 	 81 	 	 2472 	 	 2729 	 	 87 
  35 	 	 661 	 	 299 	 	 92 	 	 2051 	 	 2470 	 	 50 
  36 	 	 862 	 	 318 	 	 8 	 	 713 	 	 1169 	 	 64 
  37 	 	 891 	 	 620 	 	 5 	 	 3383 	 	 3773 	 	 100 
  38 	 	 236 	 	 55 	 	 9 	 	 3981 	 	 4442 	 	 60 
  39 	 	 132 	 	 299 	 	 54 	 	 1686 	 	 1887 	 	 93 
  40 	 	 63 	 	 433 	 	 1 	 	 428 	 	 656 	 	 50 
  41 	 	 35 	 	 550 	 	 1 	 	 28 	 	 514 	 	 63 
  42 	 	 480 	 	 204 	 	 10 	 	 4277 	 	 4744 	 	 66 
  43 	 	 910 	 	 239 	 	 7 	 	 328 	 	 650 	 	 85 
  44 	 	 717 	 	 463 	 	 6 	 	 3201 	 	 3462 	 	 51 
  45 	 	 576 	 	 189 	 	 2 	 	 1358 	 	 1669 	 	 64 
  46 	 	 180 	 	 311 	 	 56 	 	 301 	 	 661 	 	 96 
  47 	 	 149 	 	 64 	 	 59 	 	 1780 	 	 2002 	 	 97 
  48 	 	 293 	 	 984 	 	 10 	 	 518 	 	 944 	 	 62 
  49 	 	 812 	 	 233 	 	 2 	 	 318 	 	 621 	 	 53 
  50 	 	 764 	 	 745 	 	 4 	 	 2178 	 	 2507 	 	 83 
 